TSPLib/instances/tsp_10.tsp
NAME: tsp_10
TYPE: TSP
DIMENSION: 10
EDGE_WEIGHT_TYPE: EUC_2D
NODE_COORD_SECTION
1 82 16
2 96 295
3 45 261
4 6 353
5 86 267
6 91 164
7 23 60
8 81 294
9 79 312
10 52 320
EOF
